%%%mzn-stat: initTime=0.034926319
%%%mzn-stat: objective=277
%%%mzn-stat: nodes=756
%%%mzn-stat: restarts=0
%%%mzn-stat: peakDepth=454
%%%mzn-stat: solveTime=0.053871516
%%%mzn-stat: variables=1086
%%%mzn-stat: propagators=803
%%%mzn-stat: failures=280
%%%mzn-stat: propagations=99469
%%%mzn-stat: nogoods=280
%%%mzn-stat: AverageConflictSize=2.3035714285714284
%%%mzn-stat: NumUnitNogoodsLearned=276
%%%mzn-stat: AverageLearnedNogoodLength=1.7607142857142857
%%%mzn-stat: AverageBacktrackAmount=0
%%%mzn-stat: AverageLbd=1.4035714285714285
%%%mzn-stat-end
maxleg = 277;
succ = array1d(1..50,[35, 21, 5, 13, 12, 14, 24, 40, 50, 47, 15, 26, 29, 20, 1, 30, 44, 8, 7, 9, 37, 49, 2, 45, 39, 36, 33, 6, 16, 19, 38, 10, 41, 22, 27, 48, 4, 3, 34, 25, 23, 28, 32, 42, 31, 43, 17, 18, 46, 11]);
% time elapsed: 5.53 s
----------
==========
% time elapsed: 5.53 s
%%%mzn-stat: initTime=0.034926319
%%%mzn-stat: objective=277
%%%mzn-stat: nodes=756
%%%mzn-stat: restarts=0
%%%mzn-stat: peakDepth=454
%%%mzn-stat: solveTime=0.053874833
%%%mzn-stat: variables=1086
%%%mzn-stat: propagators=803
%%%mzn-stat: failures=280
%%%mzn-stat: propagations=99469
%%%mzn-stat: nogoods=280
%%%mzn-stat: AverageConflictSize=2.3035714285714284
%%%mzn-stat: NumUnitNogoodsLearned=276
%%%mzn-stat: AverageLearnedNogoodLength=1.7607142857142857
%%%mzn-stat: AverageBacktrackAmount=0
%%%mzn-stat: AverageLbd=1.4035714285714285
%%%mzn-stat-end
